(declare-fun v1 ()Bool         )
(declare-fun a79 () (Array (_ BitVec 1) (_ BitVec 16)))
(assert
(let (($e1 false    ))
(let (($e19 (_ bv6 16)))
(let (($e24 (_ bv26 16)))
(let (($e44 (_ bv0 15)))
(let (($e106         v1     ))
(let (($e107                  $e106 ))
(let (($e108        a79                    ))
(let (($e109        $e108          ))
(let (($e110        $e109            ))
(let (($e111 (select $e110 true       )))
(let (($e112 ((_ extract 14 0) $e111)))
(let (($e113      (= $e44 $e112)         ))
(let (($e115                      (bvnot $e113) ))
(let (($e116        $e115       ))
(let (($e118                      (bvnot $e116) ))
(let (($e119        $e118      ))
(let (($e153              (bvnot $e119) ))
(let (($e172 (store a79 $e1        $e19 )))
(let (($e173 (store $e172 $e107        $e24 )))
(let (($e180                      $e153 ))
(let (($e387                      $e180 ))
(let (($e461                      (bvnot $e387) ))
(let (($e485 (select $e173 true       )))
(let (($e488 (   extract        $e485)))
(let (($e489        $e488               ))
(let (($e502        $e489       ))
(let (($e503               $e502                ))
(let (($e520              $e503 ))
                  (= $e520 $e461)
                                                                                                                                                                                                                                                                                                             )                ))            ))  )                       )                                                                         )                                                                                                                                                                                                              )      ))                  )                                 )) )) ))))))))                                                       )                   )    )                 ))
